(set-logic QF_S)
(declare-fun var0 () String)
(assert (RegexIn var0 (RegexConcat (RegexStar (RegexPlus (Str2Reg "0"))) (RegexConcat (RegexStar (RegexStar (Str2Reg "111"))) (RegexConcat (RegexUnion (RegexStar (Str2Reg "22")) (RegexStar (Str2Reg "33"))) (RegexConcat (RegexUnion (RegexUnion (Str2Reg "44") (Str2Reg "555")) (RegexUnion (Str2Reg "666") (Str2Reg "77"))) (RegexConcat (RegexStar (RegexPlus (Str2Reg "8"))) (RegexConcat (RegexPlus (RegexPlus (Str2Reg "9"))) (RegexConcat (RegexUnion (RegexUnion (Str2Reg "a") (Str2Reg "bb")) (RegexUnion (Str2Reg "c") (Str2Reg "dd"))) (RegexConcat (RegexPlus (RegexPlus (Str2Reg "e"))) (RegexConcat (RegexStar (RegexStar (Str2Reg "f"))) (RegexConcat (RegexStar (RegexPlus (Str2Reg "gg"))) (RegexConcat (RegexStar (RegexPlus (Str2Reg "hh"))) (RegexConcat (RegexStar (RegexUnion (Str2Reg "i") (Str2Reg "jjj"))) (RegexConcat (RegexPlus (RegexStar (Str2Reg "k"))) (RegexConcat (RegexPlus (RegexStar (Str2Reg "ll"))) (RegexConcat (RegexStar (RegexStar (Str2Reg "mmm"))) (RegexConcat (RegexUnion (RegexStar (Str2Reg "n")) (RegexStar (Str2Reg "ooo"))) (RegexConcat (RegexStar (RegexPlus (Str2Reg "ppp"))) (RegexConcat (RegexUnion (RegexUnion (Str2Reg "qq") (Str2Reg "rr")) (RegexUnion (Str2Reg "s") (Str2Reg "tt"))) (RegexConcat (RegexPlus (RegexPlus (Str2Reg "u"))) (RegexConcat (RegexUnion (RegexPlus (Str2Reg "vv")) (RegexPlus (Str2Reg "ww"))) (RegexConcat (RegexStar (RegexPlus (Str2Reg "x"))) (RegexConcat (RegexUnion (RegexStar (Str2Reg "yy")) (RegexStar (Str2Reg "zzz"))) (RegexConcat (RegexUnion (RegexPlus (Str2Reg "A")) (RegexPlus (Str2Reg "BBB"))) (RegexConcat (RegexUnion (RegexStar (Str2Reg "CC")) (RegexStar (Str2Reg "D"))) (RegexConcat (RegexUnion (RegexUnion (Str2Reg "E") (Str2Reg "FFF")) (RegexUnion (Str2Reg "GG") (Str2Reg "HH"))) (RegexConcat (RegexStar (RegexPlus (Str2Reg "I"))) (RegexConcat (RegexStar (RegexPlus (Str2Reg "JJJ"))) (RegexConcat (RegexPlus (RegexUnion (Str2Reg "KKK") (Str2Reg "LLL"))) (RegexConcat (RegexPlus (RegexStar (Str2Reg "M"))) (RegexConcat (RegexPlus (RegexPlus (Str2Reg "N"))) (RegexPlus (RegexStar (Str2Reg "O")))))))))))))))))))))))))))))))))))
(check-sat)